
Gurobi 9.1.1 (linux64, gurobi_cl) logging started Wed Mar 31 12:48:05 2021

Academic license - for non-commercial use only - expires 2021-05-15
Using license file /home/millinger/gurobi.lic
Set parameter LogFile to value gurobi.log

Gurobi 9.1.1 (linux64, gurobi_cl) logging started Wed Mar 31 12:49:21 2021

Academic license - for non-commercial use only - expires 2021-05-15
Using license file /home/millinger/gurobi.lic
Set parameter LogFile to value gurobi.log

Gurobi 9.1.1 (linux64, gurobi_cl) logging started Wed Mar 31 12:51:05 2021

Academic license - for non-commercial use only - expires 2021-05-15
Using license file /home/millinger/gurobi.lic
Set parameter LogFile to value gurobi.log

Gurobi 9.1.1 (linux64, gurobi_cl) logging started Wed Mar 31 12:52:14 2021

Academic license - for non-commercial use only - expires 2021-05-15
Using license file /home/millinger/gurobi.lic
Set parameter LogFile to value gurobi.log

Gurobi 9.1.1 (linux64, gurobi_cl) logging started Wed Mar 31 12:55:13 2021

Academic license - for non-commercial use only - expires 2021-05-15
Using license file /home/millinger/gurobi.lic
Set parameter LogFile to value gurobi.log

Gurobi 9.1.1 (linux64, gurobi_cl) logging started Wed Mar 31 12:58:17 2021

Academic license - for non-commercial use only - expires 2021-05-15
Using license file /home/millinger/gurobi.lic
Set parameter LogFile to value gurobi.log

Gurobi 9.1.1 (linux64, gurobi_cl) logging started Wed Mar 31 13:00:02 2021

Academic license - for non-commercial use only - expires 2021-05-15
Using license file /home/millinger/gurobi.lic
Set parameter LogFile to value gurobi.log

Gurobi 9.1.1 (linux64, gurobi_cl) logging started Wed Mar 31 13:04:33 2021

Academic license - for non-commercial use only - expires 2021-05-15
Using license file /home/millinger/gurobi.lic
Set parameter LogFile to value gurobi.log

Gurobi 9.1.1 (linux64, gurobi_cl) logging started Wed Mar 31 13:15:10 2021

Academic license - for non-commercial use only - expires 2021-05-15
Using license file /home/millinger/gurobi.lic
Set parameter LogFile to value gurobi.log

Gurobi 9.1.1 (linux64, gurobi_cl) logging started Wed Mar 31 13:21:31 2021

Academic license - for non-commercial use only - expires 2021-05-15
Using license file /home/millinger/gurobi.lic
Set parameter LogFile to value gurobi.log

Gurobi 9.1.1 (linux64, gurobi_cl) logging started Wed Mar 31 13:23:05 2021

Academic license - for non-commercial use only - expires 2021-05-15
Using license file /home/millinger/gurobi.lic
Set parameter LogFile to value gurobi.log

Gurobi 9.1.1 (linux64, gurobi_cl) logging started Wed Mar 31 13:27:06 2021

Academic license - for non-commercial use only - expires 2021-05-15
Using license file /home/millinger/gurobi.lic
Set parameter LogFile to value gurobi.log

Gurobi 9.1.1 (linux64, gurobi_cl) logging started Wed Mar 31 13:27:22 2021

Academic license - for non-commercial use only - expires 2021-05-15
Using license file /home/millinger/gurobi.lic
Set parameter LogFile to value gurobi.log

Gurobi 9.1.1 (linux64, gurobi_cl) logging started Wed Mar 31 13:30:12 2021

Academic license - for non-commercial use only - expires 2021-05-15
Using license file /home/millinger/gurobi.lic
Set parameter LogFile to value gurobi.log

Gurobi 9.1.1 (linux64, gurobi_cl) logging started Wed Mar 31 13:30:38 2021

Academic license - for non-commercial use only - expires 2021-05-15
Using license file /home/millinger/gurobi.lic
Set parameter LogFile to value gurobi.log

Gurobi 9.1.1 (linux64, gurobi_cl) logging started Wed Mar 31 13:31:35 2021

Academic license - for non-commercial use only - expires 2021-05-15
Using license file /home/millinger/gurobi.lic
Set parameter LogFile to value gurobi.log

Gurobi 9.1.1 (linux64, gurobi_cl) logging started Wed Mar 31 13:32:00 2021

Academic license - for non-commercial use only - expires 2021-05-15
Using license file /home/millinger/gurobi.lic
Set parameter LogFile to value gurobi.log

Gurobi 9.1.1 (linux64, gurobi_cl) logging started Wed Mar 31 13:32:58 2021

Academic license - for non-commercial use only - expires 2021-05-15
Using license file /home/millinger/gurobi.lic
Set parameter LogFile to value gurobi.log

Gurobi 9.1.1 (linux64, gurobi_cl) logging started Wed Mar 31 13:46:06 2021

Academic license - for non-commercial use only - expires 2021-05-15
Using license file /home/millinger/gurobi.lic
Set parameter LogFile to value gurobi.log

Gurobi 9.1.1 (linux64, gurobi_cl) logging started Wed Mar 31 13:48:58 2021

Academic license - for non-commercial use only - expires 2021-05-15
Using license file /home/millinger/gurobi.lic
Set parameter LogFile to value gurobi.log

Gurobi 9.1.1 (linux64, gurobi_cl) logging started Wed Mar 31 13:49:26 2021

Academic license - for non-commercial use only - expires 2021-05-15
Using license file /home/millinger/gurobi.lic
Set parameter LogFile to value gurobi.log

Gurobi 9.1.1 (linux64, gurobi_cl) logging started Wed Mar 31 13:50:00 2021

Academic license - for non-commercial use only - expires 2021-05-15
Using license file /home/millinger/gurobi.lic
Set parameter LogFile to value gurobi.log

Gurobi 9.1.1 (linux64, gurobi_cl) logging started Wed Mar 31 13:51:26 2021

Academic license - for non-commercial use only - expires 2021-05-15
Using license file /home/millinger/gurobi.lic
Set parameter LogFile to value gurobi.log

Gurobi 9.1.1 (linux64, gurobi_cl) logging started Wed Mar 31 13:53:06 2021

Academic license - for non-commercial use only - expires 2021-05-15
Using license file /home/millinger/gurobi.lic
Set parameter LogFile to value gurobi.log

Gurobi 9.1.1 (linux64, gurobi_cl) logging started Wed Mar 31 13:53:38 2021

Academic license - for non-commercial use only - expires 2021-05-15
Using license file /home/millinger/gurobi.lic
Set parameter LogFile to value gurobi.log

Gurobi 9.1.1 (linux64, gurobi_cl) logging started Wed Mar 31 13:54:01 2021

Academic license - for non-commercial use only - expires 2021-05-15
Using license file /home/millinger/gurobi.lic
Set parameter LogFile to value gurobi.log

Gurobi 9.1.1 (linux64, gurobi_cl) logging started Wed Mar 31 13:55:46 2021

Academic license - for non-commercial use only - expires 2021-05-15
Using license file /home/millinger/gurobi.lic
Set parameter LogFile to value gurobi.log

Gurobi 9.1.1 (linux64, gurobi_cl) logging started Wed Mar 31 13:56:57 2021

Academic license - for non-commercial use only - expires 2021-05-15
Using license file /home/millinger/gurobi.lic
Set parameter LogFile to value gurobi.log

Gurobi 9.1.1 (linux64, gurobi_cl) logging started Wed Mar 31 13:57:57 2021

Academic license - for non-commercial use only - expires 2021-05-15
Using license file /home/millinger/gurobi.lic
Set parameter LogFile to value gurobi.log

Gurobi 9.1.1 (linux64, gurobi_cl) logging started Wed Mar 31 13:58:31 2021

Academic license - for non-commercial use only - expires 2021-05-15
Using license file /home/millinger/gurobi.lic
Set parameter LogFile to value gurobi.log

Gurobi 9.1.1 (linux64, gurobi_cl) logging started Wed Mar 31 13:59:13 2021

Academic license - for non-commercial use only - expires 2021-05-15
Using license file /home/millinger/gurobi.lic
Set parameter LogFile to value gurobi.log

Gurobi 9.1.1 (linux64, gurobi_cl) logging started Wed Mar 31 14:02:03 2021

Academic license - for non-commercial use only - expires 2021-05-15
Using license file /home/millinger/gurobi.lic
Set parameter LogFile to value gurobi.log

Gurobi 9.1.1 (linux64, gurobi_cl) logging started Wed Mar 31 14:36:08 2021

Academic license - for non-commercial use only - expires 2021-05-15
Using license file /home/millinger/gurobi.lic
Set parameter LogFile to value gurobi.log

Gurobi 9.1.1 (linux64, gurobi_cl) logging started Wed Mar 31 14:38:00 2021

Academic license - for non-commercial use only - expires 2021-05-15
Using license file /home/millinger/gurobi.lic
Set parameter LogFile to value gurobi.log

Gurobi 9.1.1 (linux64, gurobi_cl) logging started Wed Mar 31 14:42:05 2021

Academic license - for non-commercial use only - expires 2021-05-15
Using license file /home/millinger/gurobi.lic
Set parameter LogFile to value gurobi.log

Gurobi 9.1.1 (linux64, gurobi_cl) logging started Wed Mar 31 14:42:34 2021

Academic license - for non-commercial use only - expires 2021-05-15
Using license file /home/millinger/gurobi.lic
Set parameter LogFile to value gurobi.log

Gurobi 9.1.1 (linux64, gurobi_cl) logging started Wed Mar 31 14:46:58 2021

Academic license - for non-commercial use only - expires 2021-05-15
Using license file /home/millinger/gurobi.lic
Set parameter LogFile to value gurobi.log

Gurobi 9.1.1 (linux64, gurobi_cl) logging started Wed Mar 31 14:50:14 2021

Academic license - for non-commercial use only - expires 2021-05-15
Using license file /home/millinger/gurobi.lic
Set parameter LogFile to value gurobi.log

Gurobi 9.1.1 (linux64, gurobi_cl) logging started Wed Mar 31 14:50:24 2021

Academic license - for non-commercial use only - expires 2021-05-15
Using license file /home/millinger/gurobi.lic
Set parameter LogFile to value gurobi.log

Gurobi 9.1.1 (linux64, gurobi_cl) logging started Wed Mar 31 14:51:19 2021

Academic license - for non-commercial use only - expires 2021-05-15
Using license file /home/millinger/gurobi.lic
Set parameter LogFile to value gurobi.log

Gurobi 9.1.1 (linux64, gurobi_cl) logging started Wed Mar 31 14:51:28 2021

Academic license - for non-commercial use only - expires 2021-05-15
Using license file /home/millinger/gurobi.lic
Set parameter LogFile to value gurobi.log

Gurobi 9.1.1 (linux64, gurobi_cl) logging started Wed Mar 31 14:53:27 2021

Academic license - for non-commercial use only - expires 2021-05-15
Using license file /home/millinger/gurobi.lic
Set parameter LogFile to value gurobi.log

Gurobi 9.1.1 (linux64, gurobi_cl) logging started Wed Mar 31 14:53:34 2021

Academic license - for non-commercial use only - expires 2021-05-15
Using license file /home/millinger/gurobi.lic
Set parameter LogFile to value gurobi.log

Gurobi 9.1.1 (linux64, gurobi_cl) logging started Wed Mar 31 14:57:56 2021

Academic license - for non-commercial use only - expires 2021-05-15
Using license file /home/millinger/gurobi.lic
Set parameter LogFile to value gurobi.log

Gurobi 9.1.1 (linux64, gurobi_cl) logging started Wed Mar 31 15:16:44 2021

Academic license - for non-commercial use only - expires 2021-05-15
Using license file /home/millinger/gurobi.lic
Set parameter LogFile to value gurobi.log

Gurobi 9.1.1 (linux64, gurobi_cl) logging started Wed Mar 31 15:19:34 2021

Academic license - for non-commercial use only - expires 2021-05-15
Using license file /home/millinger/gurobi.lic
Set parameter LogFile to value gurobi.log

Gurobi 9.1.1 (linux64, gurobi_cl) logging started Wed Mar 31 15:25:10 2021

Academic license - for non-commercial use only - expires 2021-05-15
Using license file /home/millinger/gurobi.lic
Set parameter LogFile to value gurobi.log

Gurobi 9.1.1 (linux64, gurobi_cl) logging started Wed Mar 31 15:49:13 2021

Academic license - for non-commercial use only - expires 2021-05-15
Using license file /home/millinger/gurobi.lic
Set parameter LogFile to value gurobi.log

Gurobi 9.1.1 (linux64, gurobi_cl) logging started Wed Mar 31 15:56:53 2021

Academic license - for non-commercial use only - expires 2021-05-15
Using license file /home/millinger/gurobi.lic
Set parameter LogFile to value gurobi.log

Gurobi 9.1.1 (linux64, gurobi_cl) logging started Wed Mar 31 15:58:05 2021

Academic license - for non-commercial use only - expires 2021-05-15
Using license file /home/millinger/gurobi.lic
Set parameter LogFile to value gurobi.log
